unsat
(:max-memory         18.05
 :memory             18.05
 :nlsat-conflicts    1
 :nlsat-decisions    1
 :nlsat-propagations 5
 :nlsat-stages       2
 :num-allocs         24162
 :rlimit-count       3023
 :time               0.00
 :total-time         0.02)
